LengthSchedulingHorizon=2250;
nAttributes=5;
SetupCosts=[[0, 0, 0, 0, 0], [21, 21, 21, 21, 21], [21, 21, 21, 21, 21], [21, 21, 21, 21, 21], [21, 21, 21, 21, 21], [21, 21, 21, 21, 21]];
SetupTimes=[[0, 0, 0, 0, 0], [9, 9, 9, 9, 9], [9, 9, 9, 9, 9], [9, 9, 9, 9, 9], [9, 9, 9, 9, 9], [9, 9, 9, 9, 9]];
nMachines=2;
MinCap=[0, 0];
MaxCap=[73, 27];

initState=[4, 4];
nShifts=4;
ShiftStartTimes = [[0, 0, 0, 1323], [146, 1067, 1335, 2222]];
ShiftEndTimes = [[0, 0, 0, 1709], [794, 1155, 1563, 2243]];
nJobs=10;
EligibleMachines = [{1}, {1, 2}, {2}, {2}, {2}, {2}, {1, 2}, {2}, {1}, {1}];
EarliestStart=[2, 38, 23, 25, 3, 26, 11, 0, 29, 17];
LatestEnd=[343, 415, 252, 210, 21, 124, 61, 21, 103, 369];
MinTime=[69, 97, 76, 45, 12, 36, 18, 12, 23, 75];
MaxTime=[76, 98, 76, 49, 19, 98, 73, 45, 73, 91];
JobSize=[5, 1, 3, 2, 2, 2, 4, 2, 5, 2];
Attribute=[2, 4, 1, 3, 5, 1, 2, 4, 3, 3];

upper_bound_integer_objective=148050;
mult_factor_total_runtime=126;
mult_factor_finished_toolate=5922;
mult_factor_total_setuptimes=0;
mult_factor_total_setupcosts=141;
running_time_bound=463;
min_duration=12;
max_duration=97;
max_setup_time=9;
max_setup_cost=21;
